(set-info :source |printed by MathSAT|)
(declare-fun |id::x__param__@2| () (_ BitVec 32))
(declare-fun |id::x@2| () (_ BitVec 32))
(declare-fun |id::x__param__@3| () (_ BitVec 32))
(declare-fun |id::__retval__@2| () (_ BitVec 32))
(declare-fun |id::x@3| () (_ BitVec 32))
(declare-fun |id::x__param__@4| () (_ BitVec 32))
(declare-fun |id::x@4| () (_ BitVec 32))
(declare-fun |id::x__param__@5| () (_ BitVec 32))
(declare-fun |id::x@5| () (_ BitVec 32))
(declare-fun |id::x__param__@6| () (_ BitVec 32))
(declare-fun |id::x@6| () (_ BitVec 32))
(declare-fun |id::x__param__@7| () (_ BitVec 32))
(declare-fun |id::x@7| () (_ BitVec 32))
(declare-fun |id::x__param__@8| () (_ BitVec 32))
(declare-fun |id::x@8| () (_ BitVec 32))
(declare-fun |id::x__param__@9| () (_ BitVec 32))
(declare-fun |id::x@9| () (_ BitVec 32))
(declare-fun |id::x__param__@10| () (_ BitVec 32))
(declare-fun |id::x@10| () (_ BitVec 32))
(declare-fun |id::x__param__@11| () (_ BitVec 32))
(declare-fun |id::x@11| () (_ BitVec 32))
(declare-fun |id::x__param__@12| () (_ BitVec 32))
(declare-fun |id::x@12| () (_ BitVec 32))
(declare-fun |id::iVar1@13| () (_ BitVec 32))
(declare-fun |id::__retval__@3| () (_ BitVec 32))
(declare-fun |id::__retval__@4| () (_ BitVec 32))
(declare-fun |id::__retval__@5| () (_ BitVec 32))
(declare-fun |id::__retval__@6| () (_ BitVec 32))
(declare-fun |id::__retval__@7| () (_ BitVec 32))
(declare-fun |id::__retval__@8| () (_ BitVec 32))
(declare-fun |id::__retval__@9| () (_ BitVec 32))
(declare-fun |id::__retval__@10| () (_ BitVec 32))
(declare-fun |id::__retval__@11| () (_ BitVec 32))
(declare-fun |id::__retval__@12| () (_ BitVec 32))
(declare-fun |id::iVar1@15| () (_ BitVec 32))
(declare-fun |id::iVar1@16| () (_ BitVec 32))
(declare-fun |id::iVar1@18| () (_ BitVec 32))
(declare-fun |id::iVar1@19| () (_ BitVec 32))
(declare-fun |id::iVar1@21| () (_ BitVec 32))
(declare-fun |id::iVar1@22| () (_ BitVec 32))
(declare-fun |id::iVar1@24| () (_ BitVec 32))
(declare-fun |id::iVar1@25| () (_ BitVec 32))
(declare-fun |id::iVar1@27| () (_ BitVec 32))
(declare-fun |id::iVar1@28| () (_ BitVec 32))
(declare-fun |id::iVar1@30| () (_ BitVec 32))
(declare-fun |id::iVar1@31| () (_ BitVec 32))
(declare-fun |id::iVar1@33| () (_ BitVec 32))
(declare-fun |id::iVar1@34| () (_ BitVec 32))
(declare-fun |id::iVar1@36| () (_ BitVec 32))
(declare-fun |id::iVar1@37| () (_ BitVec 32))
(declare-fun |id::iVar1@39| () (_ BitVec 32))
(declare-fun |id::iVar1@40| () (_ BitVec 32))
(declare-fun |id::iVar1@42| () (_ BitVec 32))
(declare-fun |id::iVar1@43| () (_ BitVec 32))
(declare-fun |main::iVar1@14| () (_ BitVec 32))
(assert (let ((.def_14 (= |id::x__param__@2| |id::x@2|)))(let ((.def_12 (= |id::x__param__@2| (_ bv10 32))))(let ((.def_341 (and .def_12 .def_14)))(let ((.def_15 (= |id::x@2| (_ bv0 32))))(let ((.def_19 (not .def_15)))(let ((.def_342 (and .def_19 .def_341)))(let ((.def_24 (bvadd (_ bv4294967295 32) |id::x@2|)))(let ((.def_26 (= .def_24 |id::x__param__@3|)))(let ((.def_343 (and .def_26 .def_342)))(let ((.def_62 (= |id::x__param__@3| |id::x@3|)))(let ((.def_344 (and .def_62 .def_343)))(let ((.def_63 (= |id::x@3| (_ bv0 32))))(let ((.def_65 (not .def_63)))(let ((.def_345 (and .def_65 .def_344)))(let ((.def_69 (bvadd (_ bv4294967295 32) |id::x@3|)))(let ((.def_71 (= .def_69 |id::x__param__@4|)))(let ((.def_346 (and .def_71 .def_345)))(let ((.def_73 (= |id::x__param__@4| |id::x@4|)))(let ((.def_347 (and .def_73 .def_346)))(let ((.def_74 (= |id::x@4| (_ bv0 32))))(let ((.def_76 (not .def_74)))(let ((.def_348 (and .def_76 .def_347)))(let ((.def_80 (bvadd (_ bv4294967295 32) |id::x@4|)))(let ((.def_82 (= .def_80 |id::x__param__@5|)))(let ((.def_349 (and .def_82 .def_348)))(let ((.def_84 (= |id::x__param__@5| |id::x@5|)))(let ((.def_350 (and .def_84 .def_349)))(let ((.def_85 (= |id::x@5| (_ bv0 32))))(let ((.def_87 (not .def_85)))(let ((.def_351 (and .def_87 .def_350)))(let ((.def_91 (bvadd (_ bv4294967295 32) |id::x@5|)))(let ((.def_93 (= .def_91 |id::x__param__@6|)))(let ((.def_352 (and .def_93 .def_351)))(let ((.def_95 (= |id::x__param__@6| |id::x@6|)))(let ((.def_353 (and .def_95 .def_352)))(let ((.def_96 (= |id::x@6| (_ bv0 32))))(let ((.def_98 (not .def_96)))(let ((.def_354 (and .def_98 .def_353)))(let ((.def_102 (bvadd (_ bv4294967295 32) |id::x@6|)))(let ((.def_104 (= .def_102 |id::x__param__@7|)))(let ((.def_355 (and .def_104 .def_354)))(let ((.def_106 (= |id::x__param__@7| |id::x@7|)))(let ((.def_356 (and .def_106 .def_355)))(let ((.def_107 (= |id::x@7| (_ bv0 32))))(let ((.def_109 (not .def_107)))(let ((.def_357 (and .def_109 .def_356)))(let ((.def_113 (bvadd (_ bv4294967295 32) |id::x@7|)))(let ((.def_115 (= .def_113 |id::x__param__@8|)))(let ((.def_358 (and .def_115 .def_357)))(let ((.def_117 (= |id::x__param__@8| |id::x@8|)))(let ((.def_359 (and .def_117 .def_358)))(let ((.def_118 (= |id::x@8| (_ bv0 32))))(let ((.def_120 (not .def_118)))(let ((.def_360 (and .def_120 .def_359)))(let ((.def_124 (bvadd (_ bv4294967295 32) |id::x@8|)))(let ((.def_126 (= .def_124 |id::x__param__@9|)))(let ((.def_361 (and .def_126 .def_360)))(let ((.def_128 (= |id::x__param__@9| |id::x@9|)))(let ((.def_362 (and .def_128 .def_361)))(let ((.def_129 (= |id::x@9| (_ bv0 32))))(let ((.def_131 (not .def_129)))(let ((.def_363 (and .def_131 .def_362)))(let ((.def_135 (bvadd (_ bv4294967295 32) |id::x@9|)))(let ((.def_137 (= .def_135 |id::x__param__@10|)))(let ((.def_364 (and .def_137 .def_363)))(let ((.def_139 (= |id::x__param__@10| |id::x@10|)))(let ((.def_365 (and .def_139 .def_364)))(let ((.def_140 (= |id::x@10| (_ bv0 32))))(let ((.def_142 (not .def_140)))(let ((.def_366 (and .def_142 .def_365)))(let ((.def_146 (bvadd (_ bv4294967295 32) |id::x@10|)))(let ((.def_148 (= .def_146 |id::x__param__@11|)))(let ((.def_367 (and .def_148 .def_366)))(let ((.def_150 (= |id::x__param__@11| |id::x@11|)))(let ((.def_368 (and .def_150 .def_367)))(let ((.def_151 (= |id::x@11| (_ bv0 32))))(let ((.def_153 (not .def_151)))(let ((.def_369 (and .def_153 .def_368)))(let ((.def_157 (bvadd (_ bv4294967295 32) |id::x@11|)))(let ((.def_159 (= .def_157 |id::x__param__@12|)))(let ((.def_370 (and .def_159 .def_369)))(let ((.def_161 (= |id::x__param__@12| |id::x@12|)))(let ((.def_371 (and .def_161 .def_370)))(let ((.def_162 (= |id::x@12| (_ bv0 32))))(let ((.def_372 (and .def_162 .def_371)))(let ((.def_166 (= |id::iVar1@13| (_ bv0 32))))(let ((.def_373 (and .def_166 .def_372)))(let ((.def_168 (= |id::__retval__@2| |id::iVar1@13|)))(let ((.def_374 (and .def_168 .def_373)))(let ((.def_251 (= |id::__retval__@2| |id::iVar1@15|)))(let ((.def_375 (and .def_251 .def_374)))(let ((.def_253 (bvadd (_ bv1 32) |id::iVar1@15|)))(let ((.def_255 (= .def_253 |id::iVar1@16|)))(let ((.def_376 (and .def_255 .def_375)))(let ((.def_256 (= |id::__retval__@3| |id::iVar1@16|)))(let ((.def_377 (and .def_256 .def_376)))(let ((.def_259 (= |id::__retval__@3| |id::iVar1@18|)))(let ((.def_378 (and .def_259 .def_377)))(let ((.def_261 (bvadd (_ bv1 32) |id::iVar1@18|)))(let ((.def_263 (= .def_261 |id::iVar1@19|)))(let ((.def_379 (and .def_263 .def_378)))(let ((.def_264 (= |id::__retval__@4| |id::iVar1@19|)))(let ((.def_380 (and .def_264 .def_379)))(let ((.def_267 (= |id::__retval__@4| |id::iVar1@21|)))(let ((.def_381 (and .def_267 .def_380)))(let ((.def_269 (bvadd (_ bv1 32) |id::iVar1@21|)))(let ((.def_271 (= .def_269 |id::iVar1@22|)))(let ((.def_382 (and .def_271 .def_381)))(let ((.def_272 (= |id::__retval__@5| |id::iVar1@22|)))(let ((.def_383 (and .def_272 .def_382)))(let ((.def_275 (= |id::__retval__@5| |id::iVar1@24|)))(let ((.def_384 (and .def_275 .def_383)))(let ((.def_277 (bvadd (_ bv1 32) |id::iVar1@24|)))(let ((.def_279 (= .def_277 |id::iVar1@25|)))(let ((.def_385 (and .def_279 .def_384)))(let ((.def_280 (= |id::__retval__@6| |id::iVar1@25|)))(let ((.def_386 (and .def_280 .def_385)))(let ((.def_283 (= |id::__retval__@6| |id::iVar1@27|)))(let ((.def_387 (and .def_283 .def_386)))(let ((.def_285 (bvadd (_ bv1 32) |id::iVar1@27|)))(let ((.def_287 (= .def_285 |id::iVar1@28|)))(let ((.def_388 (and .def_287 .def_387)))(let ((.def_288 (= |id::__retval__@7| |id::iVar1@28|)))(let ((.def_389 (and .def_288 .def_388)))(let ((.def_291 (= |id::__retval__@7| |id::iVar1@30|)))(let ((.def_390 (and .def_291 .def_389)))(let ((.def_293 (bvadd (_ bv1 32) |id::iVar1@30|)))(let ((.def_295 (= .def_293 |id::iVar1@31|)))(let ((.def_391 (and .def_295 .def_390)))(let ((.def_296 (= |id::__retval__@8| |id::iVar1@31|)))(let ((.def_392 (and .def_296 .def_391)))(let ((.def_299 (= |id::__retval__@8| |id::iVar1@33|)))(let ((.def_393 (and .def_299 .def_392)))(let ((.def_301 (bvadd (_ bv1 32) |id::iVar1@33|)))(let ((.def_303 (= .def_301 |id::iVar1@34|)))(let ((.def_394 (and .def_303 .def_393)))(let ((.def_304 (= |id::__retval__@9| |id::iVar1@34|)))(let ((.def_395 (and .def_304 .def_394)))(let ((.def_307 (= |id::__retval__@9| |id::iVar1@36|)))(let ((.def_396 (and .def_307 .def_395)))(let ((.def_309 (bvadd (_ bv1 32) |id::iVar1@36|)))(let ((.def_311 (= .def_309 |id::iVar1@37|)))(let ((.def_397 (and .def_311 .def_396)))(let ((.def_312 (= |id::__retval__@10| |id::iVar1@37|)))(let ((.def_398 (and .def_312 .def_397)))(let ((.def_315 (= |id::__retval__@10| |id::iVar1@39|)))(let ((.def_399 (and .def_315 .def_398)))(let ((.def_317 (bvadd (_ bv1 32) |id::iVar1@39|)))(let ((.def_319 (= .def_317 |id::iVar1@40|)))(let ((.def_400 (and .def_319 .def_399)))(let ((.def_320 (= |id::__retval__@11| |id::iVar1@40|)))(let ((.def_401 (and .def_320 .def_400)))(let ((.def_323 (= |id::__retval__@11| |id::iVar1@42|)))(let ((.def_402 (and .def_323 .def_401)))(let ((.def_325 (bvadd (_ bv1 32) |id::iVar1@42|)))(let ((.def_327 (= .def_325 |id::iVar1@43|)))(let ((.def_403 (and .def_327 .def_402)))(let ((.def_328 (= |id::__retval__@12| |id::iVar1@43|)))(let ((.def_404 (and .def_328 .def_403)))(let ((.def_331 (= |id::__retval__@12| |main::iVar1@14|)))(let ((.def_405 (and .def_331 .def_404)))(let ((.def_332 (= |main::iVar1@14| (_ bv10 32))))(let ((.def_406 (and .def_332 .def_405))).def_406))))))))))))))))))))))))))))))))))))))))))))))))))))))))))))))))))))))))))))))))))))))))))))))))))))))))))))))))))))))))))))))))))))))))))))))))))))))))))))))))))))